(set-info :smt-lib-version 2.6)
(set-logic QF_NRA)
(set-info :source "|
Generated by a testsuite for polynomials of the Ultimate framework [1].
This testsuite runs transformations on polynomials and uses an SMT solver
to check that the input and the output are logically equivalent.
These transformations are mainly used by the quantifier elimination 
implemented in Ultimate Eliminator [2] which itself is used by 
the software verifier Ultimate Automizer[3,4,5] to generate state 
assertions from unsatisfiable cores [6].

2020-06-14, Matthias Heizmann (heizmann@informatik.uni-freiburg.de)

[1] https://ultimate.informatik.uni-freiburg.de/
[2] https://ultimate.informatik.uni-freiburg.de/eliminator/
[3] https://ultimate.informatik.uni-freiburg.de/automizer/
[4] Matthias Heizmann, Yu-Fang Chen, Daniel Dietsch, Marius Greitschus,
     Jochen Hoenicke, Yong Li, Alexander Nutz, Betim Musa, Christian
     Schilling, Tanja Schindler, Andreas Podelski: Ultimate Automizer
     and the Search for Perfect Interpolants - (Competition Contribution).
     TACAS (2) 2018: 447-451
[5] Matthias Heizmann, Jochen Hoenicke, Andreas Podelski: Software Model
     Checking for People Who Love Automata. CAV 2013:36-52
[6] Daniel Dietsch, Matthias Heizmann, Betim Musa, Alexander Nutz, Andreas Podelski
    Craig vs. Newton in software model checking. ESEC/SIGSOFT FSE 2017: 487-497
|")
(set-info :license "https://creativecommons.org/licenses/by/4.0/")
(set-info :category "industrial")
(set-info :status "unknown")
(declare-fun x () Real)
(declare-fun y () Real)
(declare-fun z () Real)
(declare-fun hi () Real)
(assert (let ((.cse16 (* (/ 1.0 15.0) (* hi y))) (.cse7 (/ y z))) (let ((.cse15 (/ .cse16 z .cse7))) (let ((.cse10 (< .cse7 0.0)) (.cse9 (> x .cse15)) (.cse12 (< z 0.0)) (.cse14 (< 0.0 .cse16)) (.cse13 (> .cse7 0.0)) (.cse11 (< x .cse15)) (.cse8 (> z 0.0))) (let ((.cse1 (and .cse13 .cse11 .cse8)) (.cse2 (and (= 0.0 .cse7) .cse14)) (.cse3 (and (= 0.0 z) .cse14)) (.cse4 (and .cse13 .cse9 .cse12)) (.cse5 (and .cse11 .cse12 .cse10)) (.cse6 (and .cse8 .cse9 .cse10)) (.cse0 (< (* 3.0 x .cse7 z 5.0) (* y hi)))) (and (or .cse0 .cse1 .cse2 .cse3 .cse4 .cse5 .cse6) (or (not (or .cse1 .cse2 .cse3 .cse4 .cse5 .cse6)) (not .cse0))))))))
(check-sat)
(exit)
